NAME : amz3026.133430_133430.tour
COMMENT : Cost = 133430_133430
COMMENT : Found by LKH-AMZ [Keld Helsgaun] Sun May 11 14:21:50 2025
COMMENT : TW viol.: 0 #: 0
TYPE : TOUR
DIMENSION : 174
TOUR_SECTION
22
69
83
26
60
34
130
6
89
116
164
5
168
117
161
61
27
24
30
133
74
159
162
115
25
136
86
107
51
112
91
135
40
49
167
121
160
154
75
108
95
158
29
47
97
137
80
8
11
37
23
44
53
88
57
42
129
132
32
36
18
102
2
153
19
90
120
17
134
119
55
3
1
101
170
35
7
124
165
54
152
79
78
163
155
106
149
151
93
13
122
72
41
125
70
85
114
126
100
12
118
63
141
67
128
31
62
166
103
46
38
99
59
9
77
39
98
173
150
139
156
21
111
56
109
66
113
20
96
43
68
127
157
65
10
110
105
50
104
123
169
87
84
82
73
172
144
28
15
48
4
92
145
142
76
64
71
45
52
33
81
14
58
148
143
131
138
146
140
16
174
147
171
94
-1
EOF
